p tdp 20 81
1 2
1 7
1 8
1 9
1 13
1 15
1 19
2 6
2 7
2 9
2 10
2 18
3 5
3 8
3 9
3 11
3 14
3 15
3 17
3 19
4 6
4 7
4 8
4 9
4 11
4 12
4 15
5 6
5 10
5 12
5 13
5 15
5 18
5 19
5 20
6 7
6 11
6 12
6 13
6 15
6 19
6 20
7 8
7 10
7 11
7 17
7 19
8 9
8 11
8 14
8 17
8 20
9 11
9 12
9 18
10 12
10 15
10 17
10 18
10 20
11 13
11 17
11 18
12 14
12 15
12 16
12 20
13 17
13 19
14 15
14 17
14 19
15 18
15 20
16 17
16 19
16 20
17 18
17 19
17 20
19 20
